0 49 
1 49 
2 48 
3 45 
4 42 
5 42 
6 41 
7 43 
8 39 
9 39 
10 38 
11 37 
12 38 
13 38 
14 36 
15 34 
16 31 
17 31 
18 30 
19 29 
20 28 
21 30 
22 29 
23 27 
24 27 
25 26 
26 25 
27 22 
28 24 
29 23 
30 23 
31 22 
32 21 
33 18 
34 17 
35 17 
36 18 
37 16 
38 16 
39 15 
40 14 
41 11 
42 11 
43 11 
44 11 
45 12 
46 11 
47 14 
48 13 
49 10 
50 11 
51 10 
52 8 
53 6 
54 6 
55 6 
56 6 
57 5 
58 3 
59 2 
60 2 
61 0 
62 0 

